8
0, 166, 535, 434, 762, 21, 838, 442
166, 0, 699, 600, 868, 159, 1000, 545
535, 699, 0, 130, 521, 547, 303, 404
434, 600, 130, 0, 609, 443, 422, 421
762, 868, 521, 609, 0, 783, 569, 323
21, 159, 547, 443, 783, 0, 851, 463
838, 1000, 303, 422, 569, 851, 0, 617
442, 545, 404, 421, 323, 463, 617, 0
